 H  O                                   
   1.0000000000000000     
    25.0000000000000000    0.0000000000000000    0.0000000000000000
     0.0000000000000000   25.0000000000000000    0.0000000000000000
     0.0000000000000000    0.0000000000000000   25.0000000000000000
   H    O 
     4     2
Selective dynamics
Direct
  0.4257980442549538  0.3320172150757585  0.3999999940670520   T   T   T
  0.3898345422395977  0.3818611862962413  0.3999996706564346   T   T   T
  0.3793050747556492  0.5286417364323128  0.3692822348426219   T   T   T
  0.3793046862515510  0.5286415616415425  0.4307188832414113   T   T   T
  0.3884495754383863  0.3428909609398687  0.3999994969045062   F   F   F
  0.3985182714899764  0.5145960026786369  0.4000006407970105   F   F   F

             NaN             NaN             NaN
             NaN             NaN             NaN
             NaN             NaN             NaN
             NaN             NaN             NaN
             NaN             NaN             NaN
             NaN             NaN             NaN
