 H  O                                   
   1.0000000000000000     
    25.0000000000000000    0.0000000000000000    0.0000000000000000
     0.0000000000000000   25.0000000000000000    0.0000000000000000
     0.0000000000000000    0.0000000000000000   25.0000000000000000
   H    O 
     4     2
Selective dynamics
Direct
  0.4257953457270860  0.3320140114922318  0.3999999943400967   T   T   T
  0.3898334307433152  0.3818507079362211  0.3999996712621184   T   T   T
  0.3795433604714304  0.5326381426993096  0.3692816222110474   T   T   T
  0.3795429722021021  0.5326379676520849  0.4307195496267177   T   T   T
  0.3884495754383863  0.3428909609398687  0.3999994969045062   F   F   F
  0.3987524272121021  0.5185891431841867  0.4000006673991621   F   F   F

             NaN             NaN             NaN
             NaN             NaN             NaN
             NaN             NaN             NaN
             NaN             NaN             NaN
             NaN             NaN             NaN
             NaN             NaN             NaN
