 H  O                                   
   1.0000000000000000     
    25.0000000000000000    0.0000000000000000    0.0000000000000000
     0.0000000000000000   25.0000000000000000    0.0000000000000000
     0.0000000000000000    0.0000000000000000   25.0000000000000000
   H    O 
     4     2
Selective dynamics
Direct
  0.4257734207300164  0.3320213870708510  0.3999999944682107   T   T   T
  0.3898309822899049  0.3817997355670358  0.3999996712597874   T   T   T
  0.3800003502855567  0.5406320443378321  0.3692608570329296   T   T   T
  0.3799999619761157  0.5406318684978753  0.4307404216286896   T   T   T
  0.3884495754383863  0.3428909609398687  0.3999994969045062   F   F   F
  0.3992207386563607  0.5265754241952934  0.4000007206034653   F   F   F

             NaN             NaN             NaN
             NaN             NaN             NaN
             NaN             NaN             NaN
             NaN             NaN             NaN
             NaN             NaN             NaN
             NaN             NaN             NaN
