 H  O                                   
   1.0000000000000000     
    25.0000000000000000    0.0000000000000000    0.0000000000000000
     0.0000000000000000   25.0000000000000000    0.0000000000000000
     0.0000000000000000    0.0000000000000000   25.0000000000000000
   H    O 
     4     2
Selective dynamics
Direct
  0.4261312832546919  0.3288954447615309  0.4000001131197239   T   T   T
  0.3909393254159900  0.3787854977508509  0.4000002088603817   T   T   T
  0.3772961396096318  0.5038458502606001  0.3694308649075334   T   T   T
  0.3772960918844510  0.5038456993943965  0.4305692916041698   T   T   T
  0.3892155719080037  0.3401008346642698  0.3999999484553811   F   F   F
  0.3947372742472481  0.4879977947522534  0.4000000525205749   F   F   F

             NaN             NaN             NaN
             NaN             NaN             NaN
             NaN             NaN             NaN
             NaN             NaN             NaN
             NaN             NaN             NaN
             NaN             NaN             NaN
