 H  O                                   
   1.0000000000000000     
    25.0000000000000000    0.0000000000000000    0.0000000000000000
     0.0000000000000000   25.0000000000000000    0.0000000000000000
     0.0000000000000000    0.0000000000000000   25.0000000000000000
   H    O 
     4     2
Selective dynamics
Direct
  0.4256155788806928  0.3272493534648785  0.4000001260377340   T   T   T
  0.3925043750420258  0.3786295315701582  0.4000000165452566   T   T   T
  0.3773128087162604  0.5420894420789716  0.3694862125428242   T   T   T
  0.3773128111378576  0.5420894029026354  0.4305139684692310   T   T   T
  0.3892155719080037  0.3401008346642698  0.3999999484553811   F   F   F
  0.3962296262308271  0.5279699461273779  0.4000000806463007   F   F   F

             NaN             NaN             NaN
             NaN             NaN             NaN
             NaN             NaN             NaN
             NaN             NaN             NaN
             NaN             NaN             NaN
             NaN             NaN             NaN
