 H  O                                   
   1.0000000000000000     
    25.0000000000000000    0.0000000000000000    0.0000000000000000
     0.0000000000000000   25.0000000000000000    0.0000000000000000
     0.0000000000000000    0.0000000000000000   25.0000000000000000
   H    O 
     4     2
Selective dynamics
Direct
  0.4256024458937802  0.3272596774815497  0.4000001268676172   T   T   T
  0.3925733443639956  0.3786189821875325  0.4000000187063080   T   T   T
  0.3768898218068983  0.5300486532598683  0.3694302355280925   T   T   T
  0.3768898242972867  0.5300486132777422  0.4305699302611288   T   T   T
  0.3892155719080037  0.3401008346642698  0.3999999484553811   F   F   F
  0.3957819206357556  0.5159783007148420  0.4000000722085844   F   F   F

             NaN             NaN             NaN
             NaN             NaN             NaN
             NaN             NaN             NaN
             NaN             NaN             NaN
             NaN             NaN             NaN
             NaN             NaN             NaN
