 H  O                                   
   1.0000000000000000     
    25.0000000000000000    0.0000000000000000    0.0000000000000000
     0.0000000000000000   25.0000000000000000    0.0000000000000000
     0.0000000000000000    0.0000000000000000   25.0000000000000000
   H    O 
     4     2
Selective dynamics
Direct
  0.4247453069892373  0.3290587158245515  0.4000000231361867   T   T   T
  0.3927902022364052  0.3818731977501457  0.4000001095579080   T   T   T
  0.3769124296013757  0.4810768695673033  0.3691473293515202   T   T   T
  0.3769120530785486  0.4810764064158448  0.4308533029958852   T   T   T
  0.3884495754383863  0.3428909609398687  0.3999994969045062   F   F   F
  0.3957084028244111  0.4666783166120041  0.4000003215711914   F   F   F

             NaN             NaN             NaN
             NaN             NaN             NaN
             NaN             NaN             NaN
             NaN             NaN             NaN
             NaN             NaN             NaN
             NaN             NaN             NaN
