 H  O                                   
   1.0000000000000000     
    25.0000000000000000    0.0000000000000000    0.0000000000000000
     0.0000000000000000   25.0000000000000000    0.0000000000000000
     0.0000000000000000    0.0000000000000000   25.0000000000000000
   H    O 
     4     2
Selective dynamics
Direct
  0.4251945142436213  0.3262224091318586  0.4000000554547682   T   T   T
  0.3935650105856325  0.3786298068952547  0.3999998696673543   T   T   T
  0.3754582966652578  0.4825140155897074  0.3693959293828328   T   T   T
  0.3754582588960105  0.4825140481576966  0.4306041083727337   T   T   T
  0.3892155719080037  0.3401008346642698  0.3999999484553811   F   F   F
  0.3939910982554551  0.4680117190646840  0.4000000384577120   F   F   F

             NaN             NaN             NaN
             NaN             NaN             NaN
             NaN             NaN             NaN
             NaN             NaN             NaN
             NaN             NaN             NaN
             NaN             NaN             NaN
