 H  O                                   
   1.0000000000000000     
    25.0000000000000000    0.0000000000000000    0.0000000000000000
     0.0000000000000000   25.0000000000000000    0.0000000000000000
     0.0000000000000000    0.0000000000000000   25.0000000000000000
   H    O 
     4     2
Selective dynamics
Direct
  0.4251875083860241  0.3302260824652521  0.4000001090338472   T   T   T
  0.3917103351788143  0.3818433584011132  0.4000000955991752   T   T   T
  0.3778438332250218  0.4971536784121184  0.3692044886992818   T   T   T
  0.3778434884346069  0.4971532282088873  0.4307963710879932   T   T   T
  0.3884495754383863  0.3428909609398687  0.3999994969045062   F   F   F
  0.3966450257129353  0.4826508786342174  0.4000004279797977   F   F   F

             NaN             NaN             NaN
             NaN             NaN             NaN
             NaN             NaN             NaN
             NaN             NaN             NaN
             NaN             NaN             NaN
             NaN             NaN             NaN
