 H  O                                   
   1.0000000000000000     
    25.0000000000000000    0.0000000000000000    0.0000000000000000
     0.0000000000000000   25.0000000000000000    0.0000000000000000
     0.0000000000000000    0.0000000000000000   25.0000000000000000
   H    O 
     4     2
Selective dynamics
Direct
  0.4256257439729129  0.3272691024491405  0.4000001258913685   T   T   T
  0.3924876859476305  0.3786841540966139  0.4000000153734465   T   T   T
  0.3765652668212184  0.5221043180930561  0.3694905374704551   T   T   T
  0.3765652691873316  0.5221042795754292  0.4305096150382823   T   T   T
  0.3892155719080037  0.3401008346642698  0.3999999484553811   F   F   F
  0.3954834502390341  0.5079838704398156  0.4000000665834378   F   F   F

             NaN             NaN             NaN
             NaN             NaN             NaN
             NaN             NaN             NaN
             NaN             NaN             NaN
             NaN             NaN             NaN
             NaN             NaN             NaN
