 H  O                                   
   1.0000000000000000     
    25.0000000000000000    0.0000000000000000    0.0000000000000000
     0.0000000000000000   25.0000000000000000    0.0000000000000000
     0.0000000000000000    0.0000000000000000   25.0000000000000000
   H    O 
     4     2
Selective dynamics
Direct
  0.4256202809958184  0.3272573264037357  0.4000001262972133   T   T   T
  0.3924992031409715  0.3786480580180135  0.4000000163977476   T   T   T
  0.3770140360914458  0.5340952517323317  0.3694882977604305   T   T   T
  0.3770140387491728  0.5340952125241857  0.4305118722876520   T   T   T
  0.3892155719080037  0.3401008346642698  0.3999999484553811   F   F   F
  0.3959311558341128  0.5199755158523587  0.4000000750211541   F   F   F

             NaN             NaN             NaN
             NaN             NaN             NaN
             NaN             NaN             NaN
             NaN             NaN             NaN
             NaN             NaN             NaN
             NaN             NaN             NaN
