 H  O                                   
   1.0000000000000000     
    25.0000000000000000    0.0000000000000000    0.0000000000000000
     0.0000000000000000   25.0000000000000000    0.0000000000000000
     0.0000000000000000    0.0000000000000000   25.0000000000000000
   H    O 
     4     2
Selective dynamics
Direct
  0.4242915766636770  0.3241539549422825  0.4000001839695386   T   T   T
  0.3952820403218027  0.3784487938831944  0.4000001374713307   T   T   T
  0.3747400709136670  0.4662311935352648  0.3693285646663256   T   T   T
  0.3747401390063558  0.4662311003607229  0.4306715759150848   T   T   T
  0.3892155719080037  0.3401008346642698  0.3999999484553811   F   F   F
  0.3933941574620263  0.4520228585146313  0.4000000272074189   F   F   F

             NaN             NaN             NaN
             NaN             NaN             NaN
             NaN             NaN             NaN
             NaN             NaN             NaN
             NaN             NaN             NaN
             NaN             NaN             NaN
