 H  O                                   
   1.0000000000000000     
    25.0000000000000000    0.0000000000000000    0.0000000000000000
     0.0000000000000000   25.0000000000000000    0.0000000000000000
     0.0000000000000000    0.0000000000000000   25.0000000000000000
   H    O 
     4     2
Selective dynamics
Direct
  0.4257718689894929  0.3320314768384520  0.3999999941169321   T   T   T
  0.3898477610485571  0.3818543023249248  0.3999996714006357   T   T   T
  0.3785930518700482  0.5166666516131286  0.3692528529132915   T   T   T
  0.3785926629821006  0.5166664764768001  0.4307481061621772   T   T   T
  0.3884495754383863  0.3428909609398687  0.3999994969045062   F   F   F
  0.3978158043235851  0.5026165811619805  0.4000005609905557   F   F   F

             NaN             NaN             NaN
             NaN             NaN             NaN
             NaN             NaN             NaN
             NaN             NaN             NaN
             NaN             NaN             NaN
             NaN             NaN             NaN
