 H  O                                   
   1.0000000000000000     
    25.0000000000000000    0.0000000000000000    0.0000000000000000
     0.0000000000000000   25.0000000000000000    0.0000000000000000
     0.0000000000000000    0.0000000000000000   25.0000000000000000
   H    O 
     4     2
Selective dynamics
Direct
  0.4248799780802273  0.3293940825491433  0.4000000104780170   T   T   T
  0.3924935564675920  0.3818305038269258  0.4000001027434905   T   T   T
  0.3773462480085641  0.4890892980966868  0.3691834594286121   T   T   T
  0.3773458444016811  0.4890888476918462  0.4308172560174199   T   T   T
  0.3884495754383863  0.3428909609398687  0.3999994969045062   F   F   F
  0.3961767142686767  0.4746645976231108  0.4000003747754945   F   F   F

             NaN             NaN             NaN
             NaN             NaN             NaN
             NaN             NaN             NaN
             NaN             NaN             NaN
             NaN             NaN             NaN
             NaN             NaN             NaN
