 H  O                                   
   1.0000000000000000     
    25.0000000000000000    0.0000000000000000    0.0000000000000000
     0.0000000000000000   25.0000000000000000    0.0000000000000000
     0.0000000000000000    0.0000000000000000   25.0000000000000000
   H    O 
     4     2
Selective dynamics
Direct
  0.4257710568761119  0.3320286526077667  0.3999999940385193   T   T   T
  0.3898438286398370  0.3818411032494817  0.3999996717144890   T   T   T
  0.3788299881871918  0.5206656507128007  0.3692554457780146   T   T   T
  0.3788295991810455  0.5206654747210196  0.4307455666114319   T   T   T
  0.3884495754383863  0.3428909609398687  0.3999994969045062   F   F   F
  0.3980499600457108  0.5066097216675303  0.4000005875927073   F   F   F

             NaN             NaN             NaN
             NaN             NaN             NaN
             NaN             NaN             NaN
             NaN             NaN             NaN
             NaN             NaN             NaN
             NaN             NaN             NaN
