 H  O                                   
   1.0000000000000000     
    25.0000000000000000    0.0000000000000000    0.0000000000000000
     0.0000000000000000   25.0000000000000000    0.0000000000000000
     0.0000000000000000    0.0000000000000000   25.0000000000000000
   H    O 
     4     2
Selective dynamics
Direct
  0.4231531879386310  0.3255093365299189  0.3999998640033766   T   T   T
  0.3958485127533891  0.3815141914548477  0.3999990493679917   T   T   T
  0.3753499673965877  0.4640836398055157  0.3690637978705666   T   T   T
  0.3753495646135079  0.4640838309730881  0.4309362908933210   T   T   T
  0.3884495754383863  0.3428909609398687  0.3999994969045062   F   F   F
  0.3947717799358941  0.4507057545897908  0.4000002151625921   F   F   F

             NaN             NaN             NaN
             NaN             NaN             NaN
             NaN             NaN             NaN
             NaN             NaN             NaN
             NaN             NaN             NaN
             NaN             NaN             NaN
