 H  O                                   
   1.0000000000000000     
    25.0000000000000000    0.0000000000000000    0.0000000000000000
     0.0000000000000000   25.0000000000000000    0.0000000000000000
     0.0000000000000000    0.0000000000000000   25.0000000000000000
   H    O 
     4     2
Selective dynamics
Direct
  0.4084013477979286  0.3095474886510044  0.4000244361935854   T   T   T
  0.4139407693576284  0.3725766718531635  0.4000289676523006   T   T   T
  0.3707370950499840  0.4332081658278307  0.3693531760167133   T   T   T
  0.3707311511642139  0.4331549576510064  0.4306328671344483   T   T   T
  0.3884495754383863  0.3428909609398687  0.3999994969045062   F   F   F
  0.3940693127695027  0.4387263330731344  0.4000001353561373   F   F   F

             NaN             NaN             NaN
             NaN             NaN             NaN
             NaN             NaN             NaN
             NaN             NaN             NaN
             NaN             NaN             NaN
             NaN             NaN             NaN
