 H  O                                   
   1.0000000000000000     
    25.0000000000000000    0.0000000000000000    0.0000000000000000
     0.0000000000000000   25.0000000000000000    0.0000000000000000
     0.0000000000000000    0.0000000000000000   25.0000000000000000
   H    O 
     4     2
Selective dynamics
Direct
  0.4257716882901690  0.3320268261134286  0.3999999937334177   T   T   T
  0.3898407368999462  0.3818303614755296  0.3999996711799016   T   T   T
  0.3790641294203681  0.5246590836032864  0.3692568234403972   T   T   T
  0.3790637402183101  0.5246589081114221  0.4307442418151987   T   T   T
  0.3884495754383863  0.3428909609398687  0.3999994969045062   F   F   F
  0.3982841157678436  0.5106028621730871  0.4000006141948589   F   F   F

             NaN             NaN             NaN
             NaN             NaN             NaN
             NaN             NaN             NaN
             NaN             NaN             NaN
             NaN             NaN             NaN
             NaN             NaN             NaN
