 H  O                                   
   1.0000000000000000     
    25.0000000000000000    0.0000000000000000    0.0000000000000000
     0.0000000000000000   25.0000000000000000    0.0000000000000000
     0.0000000000000000    0.0000000000000000   25.0000000000000000
   H    O 
     4     2
Selective dynamics
Direct
  0.4255877152944691  0.3272593771001624  0.4000001260915056   T   T   T
  0.3925820500631545  0.3786928229006321  0.4000000177984830   T   T   T
  0.3755474270647028  0.4940742171753385  0.3694173331651456   T   T   T
  0.3755474296068613  0.4940741772898889  0.4305827805221725   T   T   T
  0.3892155719080037  0.3401008346642698  0.3999999484553811   F   F   F
  0.3944388038505338  0.4800033644772270  0.4000000468954283   F   F   F

             NaN             NaN             NaN
             NaN             NaN             NaN
             NaN             NaN             NaN
             NaN             NaN             NaN
             NaN             NaN             NaN
             NaN             NaN             NaN
