 H  O                                   
   1.0000000000000000     
    25.0000000000000000    0.0000000000000000    0.0000000000000000
     0.0000000000000000   25.0000000000000000    0.0000000000000000
     0.0000000000000000    0.0000000000000000   25.0000000000000000
   H    O 
     4     2
Selective dynamics
Direct
  0.4255920495367036  0.3272586544715708  0.4000001262683384   T   T   T
  0.3925794606771547  0.3786756084162874  0.4000000184011014   T   T   T
  0.3759947675575361  0.5060632479933460  0.3694208669733854   T   T   T
  0.3759947699934187  0.5060632079673582  0.4305792639396273   T   T   T
  0.3892155719080037  0.3401008346642698  0.3999999484553811   F   F   F
  0.3948865094456053  0.4919950098897630  0.4000000553331446   F   F   F

             NaN             NaN             NaN
             NaN             NaN             NaN
             NaN             NaN             NaN
             NaN             NaN             NaN
             NaN             NaN             NaN
             NaN             NaN             NaN
