 H  O                                   
   1.0000000000000000     
    25.0000000000000000    0.0000000000000000    0.0000000000000000
     0.0000000000000000   25.0000000000000000    0.0000000000000000
     0.0000000000000000    0.0000000000000000   25.0000000000000000
   H    O 
     4     2
Selective dynamics
Direct
  0.4250452385626957  0.3298391590556875  0.4000000721865149   T   T   T
  0.3920900667404368  0.3818434860402959  0.4000001079707900   T   T   T
  0.3776048965472754  0.4931434984793270  0.3691990717707938   T   T   T
  0.3776045272725881  0.4931430524738261  0.4308017173682472   T   T   T
  0.3884495754383863  0.3428909609398687  0.3999994969045062   F   F   F
  0.3964108699908024  0.4786577381286605  0.4000004013776461   F   F   F

             NaN             NaN             NaN
             NaN             NaN             NaN
             NaN             NaN             NaN
             NaN             NaN             NaN
             NaN             NaN             NaN
             NaN             NaN             NaN
