 H  O                                   
   1.0000000000000000     
    25.0000000000000000    0.0000000000000000    0.0000000000000000
     0.0000000000000000   25.0000000000000000    0.0000000000000000
     0.0000000000000000    0.0000000000000000   25.0000000000000000
   H    O 
     4     2
Selective dynamics
Direct
  0.4255977927355019  0.3272621507142830  0.4000001266187212   T   T   T
  0.3925777031427131  0.3786587995793624  0.4000000184108856   T   T   T
  0.3761436598813930  0.5100624316648137  0.3694251958826840   T   T   T
  0.3761436624352825  0.5100623917379110  0.4305749412545339   T   T   T
  0.3892155719080037  0.3401008346642698  0.3999999484553811   F   F   F
  0.3950357446439625  0.4959922250272797  0.4000000581457215   F   F   F

             NaN             NaN             NaN
             NaN             NaN             NaN
             NaN             NaN             NaN
             NaN             NaN             NaN
             NaN             NaN             NaN
             NaN             NaN             NaN
