 H  O                                   
   1.0000000000000000     
    25.0000000000000000    0.0000000000000000    0.0000000000000000
     0.0000000000000000   25.0000000000000000    0.0000000000000000
     0.0000000000000000    0.0000000000000000   25.0000000000000000
   H    O 
     4     2
Selective dynamics
Direct
  0.4246326903537536  0.3287766940188419  0.4000000355498514   T   T   T
  0.3930147646954723  0.3818856097431649  0.4000001013792414   T   T   T
  0.3767894470315625  0.4771926538615503  0.3691285675391924   T   T   T
  0.3767890735527217  0.4771922123128647  0.4308720067405645   T   T   T
  0.3884495754383863  0.3428909609398687  0.3999994969045062   F   F   F
  0.3954742471022854  0.4626851761064543  0.4000002949690398   F   F   F

             NaN             NaN             NaN
             NaN             NaN             NaN
             NaN             NaN             NaN
             NaN             NaN             NaN
             NaN             NaN             NaN
             NaN             NaN             NaN
