 H  O                                   
   1.0000000000000000     
    25.0000000000000000    0.0000000000000000    0.0000000000000000
     0.0000000000000000   25.0000000000000000    0.0000000000000000
     0.0000000000000000    0.0000000000000000   25.0000000000000000
   H    O 
     4     2
Selective dynamics
Direct
  0.4252682576486175  0.3304501737255383  0.3999999764370014   T   T   T
  0.3914747928247159  0.3817936284232598  0.3999998946324563   T   T   T
  0.3788588069504827  0.5096089114169015  0.3692471344264361   T   T   T
  0.3788583451569414  0.5096085143886195  0.4307537994221546   T   T   T
  0.3884495754383863  0.3428909609398687  0.3999994969045062   F   F   F
  0.3973474928793266  0.4946303001508738  0.4000005077862525   F   F   F

             NaN             NaN             NaN
             NaN             NaN             NaN
             NaN             NaN             NaN
             NaN             NaN             NaN
             NaN             NaN             NaN
             NaN             NaN             NaN
