 H  O                                   
   1.0000000000000000     
    25.0000000000000000    0.0000000000000000    0.0000000000000000
     0.0000000000000000   25.0000000000000000    0.0000000000000000
     0.0000000000000000    0.0000000000000000   25.0000000000000000
   H    O 
     4     2
Selective dynamics
Direct
  0.4255801611625287  0.3272547178584730  0.4000001262568418   T   T   T
  0.3925838236646086  0.3787166753098674  0.4000000179624266   T   T   T
  0.3752494142232052  0.4860807021232674  0.3694110371279322   T   T   T
  0.3752494167321672  0.4860806623533804  0.4305890656430051   T   T   T
  0.3892155719080037  0.3401008346642698  0.3999999484553811   F   F   F
  0.3941403334538123  0.4720089342022007  0.4000000412702818   F   F   F

             NaN             NaN             NaN
             NaN             NaN             NaN
             NaN             NaN             NaN
             NaN             NaN             NaN
             NaN             NaN             NaN
             NaN             NaN             NaN
