 H  O                                   
   1.0000000000000000     
    25.0000000000000000    0.0000000000000000    0.0000000000000000
     0.0000000000000000   25.0000000000000000    0.0000000000000000
     0.0000000000000000    0.0000000000000000   25.0000000000000000
   H    O 
     4     2
Selective dynamics
Direct
  0.4242772819328948  0.3279042901206140  0.4000001172013299   T   T   T
  0.3938844705797351  0.3818108715154978  0.3999983622757028   T   T   T
  0.3753131174537501  0.4714811489666531  0.3691330234168504   T   T   T
  0.3753129272318958  0.4714816006143252  0.4308671974495439   T   T   T
  0.3884495754383863  0.3428909609398687  0.3999994969045062   F   F   F
  0.3952400913801526  0.4586920356008974  0.4000002683668882   F   F   F

             NaN             NaN             NaN
             NaN             NaN             NaN
             NaN             NaN             NaN
             NaN             NaN             NaN
             NaN             NaN             NaN
             NaN             NaN             NaN
