 H  O                                   
   1.0000000000000000     
    25.0000000000000000    0.0000000000000000    0.0000000000000000
     0.0000000000000000   25.0000000000000000    0.0000000000000000
     0.0000000000000000    0.0000000000000000   25.0000000000000000
   H    O 
     4     2
Selective dynamics
Direct
  0.4248388195057942  0.3292926305820316  0.3999999998816293   T   T   T
  0.3925893302227834  0.3818571413688261  0.4000000683692093   T   T   T
  0.3770961926598204  0.4850402728904015  0.3691658587019475   T   T   T
  0.3770957930789649  0.4850398199345847  0.4308348060721130   T   T   T
  0.3884495754383863  0.3428909609398687  0.3999994969045062   F   F   F
  0.3959425585465439  0.4706714571175539  0.4000003481733430   F   F   F

             NaN             NaN             NaN
             NaN             NaN             NaN
             NaN             NaN             NaN
             NaN             NaN             NaN
             NaN             NaN             NaN
             NaN             NaN             NaN
