 H  O                                   
   1.0000000000000000     
    25.0000000000000000    0.0000000000000000    0.0000000000000000
     0.0000000000000000   25.0000000000000000    0.0000000000000000
     0.0000000000000000    0.0000000000000000   25.0000000000000000
   H    O 
     4     2
Selective dynamics
Direct
  0.4250488702299720  0.3258822954899898  0.4000001042800463   T   T   T
  0.3938005201085630  0.3786390645773707  0.3999999348753320   T   T   T
  0.3751465180558142  0.4744204424027885  0.3693599064678281   T   T   T
  0.3751465193435166  0.4744204404457548  0.4306401598575604   T   T   T
  0.3892155719080037  0.3401008346642698  0.3999999484553811   F   F   F
  0.3936926278587407  0.4600172887896576  0.4000000328325655   F   F   F

             NaN             NaN             NaN
             NaN             NaN             NaN
             NaN             NaN             NaN
             NaN             NaN             NaN
             NaN             NaN             NaN
             NaN             NaN             NaN
