 H  O                                   
   1.0000000000000000     
    25.0000000000000000    0.0000000000000000    0.0000000000000000
     0.0000000000000000   25.0000000000000000    0.0000000000000000
     0.0000000000000000    0.0000000000000000   25.0000000000000000
   H    O 
     4     2
Selective dynamics
Direct
  0.4144951214126280  0.3110044258950069  0.4000057794045020   T   T   T
  0.4093550755948314  0.3731735119935706  0.3999363388325321   T   T   T
  0.3693972609028719  0.4414291482018484  0.3694182841355982   T   T   T
  0.3693812925448867  0.4414870294161801  0.4305664635452899   T   T   T
  0.3892155719080037  0.3401008346642698  0.3999999484553811   F   F   F
  0.3929464518669477  0.4400312131020954  0.4000000187697026   F   F   F

             NaN             NaN             NaN
             NaN             NaN             NaN
             NaN             NaN             NaN
             NaN             NaN             NaN
             NaN             NaN             NaN
             NaN             NaN             NaN
