 H  O                                   
   1.0000000000000000     
    25.0000000000000000    0.0000000000000000    0.0000000000000000
     0.0000000000000000   25.0000000000000000    0.0000000000000000
     0.0000000000000000    0.0000000000000000   25.0000000000000000
   H    O 
     4     2
Selective dynamics
Direct
  0.4255957163642284  0.3272455738549380  0.4000001280345895   T   T   T
  0.3925051669398571  0.3785986616559642  0.4000000180364607   T   T   T
  0.3777539879537213  0.5540816606133196  0.3694719833073372   T   T   T
  0.3777539923172767  0.5540816192871754  0.4305282166553333   T   T   T
  0.3892155719080037  0.3401008346642698  0.3999999484553811   F   F   F
  0.3966773318258987  0.5399615915399210  0.4000000890840241   F   F   F

             NaN             NaN             NaN
             NaN             NaN             NaN
             NaN             NaN             NaN
             NaN             NaN             NaN
             NaN             NaN             NaN
             NaN             NaN             NaN
