 H  O                                   
   1.0000000000000000     
    25.0000000000000000    0.0000000000000000    0.0000000000000000
     0.0000000000000000   25.0000000000000000    0.0000000000000000
     0.0000000000000000    0.0000000000000000   25.0000000000000000
   H    O 
     4     2
Selective dynamics
Direct
  0.4258870010452327  0.3324174430729059  0.4000002672127110   T   T   T
  0.3893514232555830  0.3817992832557309  0.4000001564385371   T   T   T
  0.3832126187504983  0.5555066229658578  0.3692609057270957   T   T   T
  0.3832122940253768  0.5555062378589426  0.4307407304523068   T   T   T
  0.3884495754383863  0.3428909609398687  0.3999994969045062   F   F   F
  0.3999232058227520  0.5385548457119569  0.4000008004099129   F   F   F

             NaN             NaN             NaN
             NaN             NaN             NaN
             NaN             NaN             NaN
             NaN             NaN             NaN
             NaN             NaN             NaN
             NaN             NaN             NaN
