 H  O                                   
   1.0000000000000000     
    25.0000000000000000    0.0000000000000000    0.0000000000000000
     0.0000000000000000   25.0000000000000000    0.0000000000000000
     0.0000000000000000    0.0000000000000000   25.0000000000000000
   H    O 
     4     2
Selective dynamics
Direct
  0.4237513318509906  0.3267346396932101  0.3999999804706654   T   T   T
  0.3949151121780505  0.3816781951444662  0.3999982031182189   T   T   T
  0.3748027457426728  0.4670262062667017  0.3691185851945683   T   T   T
  0.3748024145183817  0.4670268376684784  0.4308814213269568   T   T   T
  0.3884495754383863  0.3428909609398687  0.3999994969045062   F   F   F
  0.3950059356580269  0.4546988950953477  0.4000002417647366   F   F   F

             NaN             NaN             NaN
             NaN             NaN             NaN
             NaN             NaN             NaN
             NaN             NaN             NaN
             NaN             NaN             NaN
             NaN             NaN             NaN
