 H  O                                   
   1.0000000000000000     
    25.0000000000000000    0.0000000000000000    0.0000000000000000
     0.0000000000000000   25.0000000000000000    0.0000000000000000
     0.0000000000000000    0.0000000000000000   25.0000000000000000
   H    O 
     4     2
Selective dynamics
Direct
  0.4168187509738104  0.3163966875726771  0.4000099263469039   T   T   T
  0.4052364351175868  0.3783888689707169  0.3999155422051714   T   T   T
  0.3708898915803687  0.4465925832347040  0.3691565270100412   T   T   T
  0.3708696893011734  0.4466531880595142  0.4308213761384323   T   T   T
  0.3884495754383863  0.3428909609398687  0.3999994969045062   F   F   F
  0.3943034684916356  0.4427194735786841  0.4000001619582889   F   F   F

             NaN             NaN             NaN
             NaN             NaN             NaN
             NaN             NaN             NaN
             NaN             NaN             NaN
             NaN             NaN             NaN
             NaN             NaN             NaN
