 H  O                                   
   1.0000000000000000     
    25.0000000000000000    0.0000000000000000    0.0000000000000000
     0.0000000000000000   25.0000000000000000    0.0000000000000000
     0.0000000000000000    0.0000000000000000   25.0000000000000000
   H    O 
     4     2
Selective dynamics
Direct
  0.4256179536425214  0.3272537582835575  0.4000001260454691   T   T   T
  0.3925019892276395  0.3786377614766379  0.4000000164568418   T   T   T
  0.3771633067100281  0.5380920364799642  0.3694869143414083   T   T   T
  0.3771633092284972  0.5380919971486879  0.4305132612121853   T   T   T
  0.3892155719080037  0.3401008346642698  0.3999999484553811   F   F   F
  0.3960803910324699  0.5239727309898683  0.4000000778337309   F   F   F

             NaN             NaN             NaN
             NaN             NaN             NaN
             NaN             NaN             NaN
             NaN             NaN             NaN
             NaN             NaN             NaN
             NaN             NaN             NaN
