 H  O                                   
   1.0000000000000000     
    25.0000000000000000    0.0000000000000000    0.0000000000000000
     0.0000000000000000   25.0000000000000000    0.0000000000000000
     0.0000000000000000    0.0000000000000000   25.0000000000000000
   H    O 
     4     2
Selective dynamics
Direct
  0.4229056202980956  0.3214134355819738  0.4000000573583620   T   T   T
  0.3978695487876962  0.3779469042810462  0.3999982377537563   T   T   T
  0.3734565200244688  0.4605885101243530  0.3693105179051202   T   T   T
  0.3734565234299723  0.4605896587202665  0.4306890496668601   T   T   T
  0.3892155719080037  0.3401008346642698  0.3999999484553811   F   F   F
  0.3932449222636691  0.4480256433771217  0.4000000243948492   F   F   F

             NaN             NaN             NaN
             NaN             NaN             NaN
             NaN             NaN             NaN
             NaN             NaN             NaN
             NaN             NaN             NaN
             NaN             NaN             NaN
