 H  O                                   
   1.0000000000000000     
    25.0000000000000000    0.0000000000000000    0.0000000000000000
     0.0000000000000000   25.0000000000000000    0.0000000000000000
     0.0000000000000000    0.0000000000000000   25.0000000000000000
   H    O 
     4     2
Selective dynamics
Direct
  0.4259820108641555  0.3327028036363402  0.4000005882612965   T   T   T
  0.3890312370476051  0.3818239100566672  0.4000005713838248   T   T   T
  0.3847333367762167  0.5606718587430407  0.3692787101030073   T   T   T
  0.3847330604432968  0.5606712241518168  0.4307231798178902   T   T   T
  0.3884495754383863  0.3428909609398687  0.3999994969045062   F   F   F
  0.4001573615448848  0.5425479862175067  0.4000008270120645   F   F   F

             NaN             NaN             NaN
             NaN             NaN             NaN
             NaN             NaN             NaN
             NaN             NaN             NaN
             NaN             NaN             NaN
             NaN             NaN             NaN
