 H  O                                   
   1.0000000000000000     
    25.0000000000000000    0.0000000000000000    0.0000000000000000
     0.0000000000000000   25.0000000000000000    0.0000000000000000
     0.0000000000000000    0.0000000000000000   25.0000000000000000
   H    O 
     4     2
Selective dynamics
Direct
  0.4255842982102962  0.3272575272290013  0.4000001262525004   T   T   T
  0.3925830431722019  0.3787035305961410  0.4000000179957155   T   T   T
  0.3753983857009331  0.4900774311553988  0.3694145153905311   T   T   T
  0.3753983882262588  0.4900773913453875  0.4305855930187548   T   T   T
  0.3892155719080037  0.3401008346642698  0.3999999484553811   F   F   F
  0.3942895686521695  0.4760061493397103  0.4000000440828586   F   F   F

             NaN             NaN             NaN
             NaN             NaN             NaN
             NaN             NaN             NaN
             NaN             NaN             NaN
             NaN             NaN             NaN
             NaN             NaN             NaN
