 H  O                                   
   1.0000000000000000     
    25.0000000000000000    0.0000000000000000    0.0000000000000000
     0.0000000000000000   25.0000000000000000    0.0000000000000000
     0.0000000000000000    0.0000000000000000   25.0000000000000000
   H    O 
     4     2
Selective dynamics
Direct
  0.4256137385885528  0.3272419912141054  0.4000001264324514   T   T   T
  0.3925065043009643  0.3786174316202026  0.4000000172441425   T   T   T
  0.3776123594920846  0.5500844184393330  0.3694871680488210   T   T   T
  0.3776123622326732  0.5500843788035226  0.4305130245848233   T   T   T
  0.3892155719080037  0.3401008346642698  0.3999999484553811   F   F   F
  0.3965280966275415  0.5359643764024042  0.4000000862714472   F   F   F

             NaN             NaN             NaN
             NaN             NaN             NaN
             NaN             NaN             NaN
             NaN             NaN             NaN
             NaN             NaN             NaN
             NaN             NaN             NaN
