 H  O                                   
   1.0000000000000000     
    25.0000000000000000    0.0000000000000000    0.0000000000000000
     0.0000000000000000   25.0000000000000000    0.0000000000000000
     0.0000000000000000    0.0000000000000000   25.0000000000000000
   H    O 
     4     2
Selective dynamics
Direct
  0.4257736611181062  0.3320200387039015  0.3999999941498857   T   T   T
  0.3898290169867535  0.3817944163316584  0.3999996708382201   T   T   T
  0.3802342962208652  0.5446251773104843  0.3692616233654239   T   T   T
  0.3802339074685263  0.5446250018216753  0.4307397081924973   T   T   T
  0.3884495754383863  0.3428909609398687  0.3999994969045062   F   F   F
  0.3994548943784935  0.5305685647008502  0.4000007472056097   F   F   F

             NaN             NaN             NaN
             NaN             NaN             NaN
             NaN             NaN             NaN
             NaN             NaN             NaN
             NaN             NaN             NaN
             NaN             NaN             NaN
