 H  O                                   
   1.0000000000000000     
    25.0000000000000000    0.0000000000000000    0.0000000000000000
     0.0000000000000000   25.0000000000000000    0.0000000000000000
     0.0000000000000000    0.0000000000000000   25.0000000000000000
   H    O 
     4     2
Selective dynamics
Direct
  0.4257769243064821  0.3320165351599276  0.3999999940993903   T   T   T
  0.3898256377158456  0.3817951919067838  0.3999996706603791   T   T   T
  0.3804698591001697  0.5486179150193047  0.3692663651263456   T   T   T
  0.3804694701521013  0.5486177397910319  0.4307350196268867   T   T   T
  0.3884495754383863  0.3428909609398687  0.3999994969045062   F   F   F
  0.3996890501006263  0.5345617052064000  0.4000007738077613   F   F   F

             NaN             NaN             NaN
             NaN             NaN             NaN
             NaN             NaN             NaN
             NaN             NaN             NaN
             NaN             NaN             NaN
             NaN             NaN             NaN
