 H  O                                   
   1.0000000000000000     
    25.0000000000000000    0.0000000000000000    0.0000000000000000
     0.0000000000000000   25.0000000000000000    0.0000000000000000
     0.0000000000000000    0.0000000000000000   25.0000000000000000
   H    O 
     4     2
Selective dynamics
Direct
  0.4257427384939803  0.3319220135526280  0.3999999958372484   T   T   T
  0.3900499247216302  0.3818675193308891  0.3999997122115957   T   T   T
  0.3784908510896159  0.5127850212760379  0.3692212824428083   T   T   T
  0.3784904559806890  0.5127848247136058  0.4307796316480008   T   T   T
  0.3884495754383863  0.3428909609398687  0.3999994969045062   F   F   F
  0.3975816486014523  0.4986234406564236  0.4000005343884041   F   F   F

             NaN             NaN             NaN
             NaN             NaN             NaN
             NaN             NaN             NaN
             NaN             NaN             NaN
             NaN             NaN             NaN
             NaN             NaN             NaN
