 H  O                                   
   1.0000000000000000     
    25.0000000000000000    0.0000000000000000    0.0000000000000000
     0.0000000000000000   25.0000000000000000    0.0000000000000000
     0.0000000000000000    0.0000000000000000   25.0000000000000000
   H    O 
     4     2
Selective dynamics
Direct
  0.4252544984899662  0.3304073440912995  0.3999999806033512   T   T   T
  0.3915242100351515  0.3818099886266581  0.3999999422997902   T   T   T
  0.3784933260977597  0.5054088512961628  0.3692238826569234   T   T   T
  0.3784928830748422  0.5054084728225197  0.4307769937577695   T   T   T
  0.3884495754383863  0.3428909609398687  0.3999994969045062   F   F   F
  0.3971133371571938  0.4906371596453241  0.4000004811841009   F   F   F

             NaN             NaN             NaN
             NaN             NaN             NaN
             NaN             NaN             NaN
             NaN             NaN             NaN
             NaN             NaN             NaN
             NaN             NaN             NaN
