 H  O                                   
   1.0000000000000000     
    25.0000000000000000    0.0000000000000000    0.0000000000000000
     0.0000000000000000   25.0000000000000000    0.0000000000000000
     0.0000000000000000    0.0000000000000000   25.0000000000000000
   H    O 
     4     2
Selective dynamics
Direct
  0.4256143842188284  0.3272457937948417  0.4000001264955834   T   T   T
  0.3925047657489206  0.3786262288628147  0.4000000171230857   T   T   T
  0.3774624864809342  0.5460873331392070  0.3694879081853093   T   T   T
  0.3774624893470148  0.5460872933539681  0.4305122786587703   T   T   T
  0.3892155719080037  0.3401008346642698  0.3999999484553811   F   F   F
  0.3963788614291843  0.5319671612648946  0.4000000834588775   F   F   F

             NaN             NaN             NaN
             NaN             NaN             NaN
             NaN             NaN             NaN
             NaN             NaN             NaN
             NaN             NaN             NaN
             NaN             NaN             NaN
