 H  O                                   
   1.0000000000000000     
    25.0000000000000000    0.0000000000000000    0.0000000000000000
     0.0000000000000000   25.0000000000000000    0.0000000000000000
     0.0000000000000000    0.0000000000000000   25.0000000000000000
   H    O 
     4     2
Selective dynamics
Direct
  0.4257969392407759  0.3320172226479912  0.3999999947821777   T   T   T
  0.3898327447713399  0.3818388787328573  0.3999996711824707   T   T   T
  0.3797721705231965  0.5366290119381958  0.3692805381330473   T   T   T
  0.3797717819683015  0.5366288372062300  0.4307206880851027   T   T   T
  0.3884495754383863  0.3428909609398687  0.3999994969045062   F   F   F
  0.3989865829342349  0.5225822836897436  0.4000006940013137   F   F   F

             NaN             NaN             NaN
             NaN             NaN             NaN
             NaN             NaN             NaN
             NaN             NaN             NaN
             NaN             NaN             NaN
             NaN             NaN             NaN
