 H  O                                   
   1.0000000000000000     
    25.0000000000000000    0.0000000000000000    0.0000000000000000
     0.0000000000000000   25.0000000000000000    0.0000000000000000
     0.0000000000000000    0.0000000000000000   25.0000000000000000
   H    O 
     4     2
Selective dynamics
Direct
  0.4255906037774579  0.3272600124014104  0.4000001259057271   T   T   T
  0.3925810406809376  0.3786847077362694  0.4000000176835243   T   T   T
  0.3756965339702845  0.4980706905975438  0.3694197969074295   T   T   T
  0.3756965365021685  0.4980706506776968  0.4305803219883657   T   T   T
  0.3892155719080037  0.3401008346642698  0.3999999484553811   F   F   F
  0.3945880390488909  0.4840005796147366  0.4000000497080052   F   F   F

             NaN             NaN             NaN
             NaN             NaN             NaN
             NaN             NaN             NaN
             NaN             NaN             NaN
             NaN             NaN             NaN
             NaN             NaN             NaN
