 H  O                                   
   1.0000000000000000     
    25.0000000000000000    0.0000000000000000    0.0000000000000000
     0.0000000000000000   25.0000000000000000    0.0000000000000000
     0.0000000000000000    0.0000000000000000   25.0000000000000000
   H    O 
     4     2
Selective dynamics
Direct
  0.4217984494476781  0.3195593769669145  0.4000001772381552   T   T   T
  0.3995869102042988  0.3774800032449974  0.3999988100983600   T   T   T
  0.3730780424900928  0.4561498721244206  0.3692839100707914   T   T   T
  0.3730781312370794  0.4561507670195937  0.4307158271676172   T   T   T
  0.3892155719080037  0.3401008346642698  0.3999999484553811   F   F   F
  0.3930956870653119  0.4440284282396050  0.4000000215822723   F   F   F

             NaN             NaN             NaN
             NaN             NaN             NaN
             NaN             NaN             NaN
             NaN             NaN             NaN
             NaN             NaN             NaN
             NaN             NaN             NaN
