 H  O                                   
   1.0000000000000000     
    25.0000000000000000    0.0000000000000000    0.0000000000000000
     0.0000000000000000   25.0000000000000000    0.0000000000000000
     0.0000000000000000    0.0000000000000000   25.0000000000000000
   H    O 
     4     2
Selective dynamics
Direct
  0.4252390212214507  0.3303675157774890  0.4000000652438445   T   T   T
  0.3915698403512522  0.3818291255856892  0.4000000687618197   T   T   T
  0.3781467522301227  0.5012516181759210  0.3692134304334616   T   T   T
  0.3781463619575618  0.5012511670569921  0.4307874567578835   T   T   T
  0.3884495754383863  0.3428909609398687  0.3999994969045062   F   F   F
  0.3968791814350610  0.4866440191397672  0.4000004545819493   F   F   F

             NaN             NaN             NaN
             NaN             NaN             NaN
             NaN             NaN             NaN
             NaN             NaN             NaN
             NaN             NaN             NaN
             NaN             NaN             NaN
