 H  O                                   
   1.0000000000000000     
    25.0000000000000000    0.0000000000000000    0.0000000000000000
     0.0000000000000000   25.0000000000000000    0.0000000000000000
     0.0000000000000000    0.0000000000000000   25.0000000000000000
   H    O 
     4     2
Selective dynamics
Direct
  0.4256000655560683  0.3272607050503709  0.4000001262802257   T   T   T
  0.3925758349374036  0.3786430303629800  0.4000000181211192   T   T   T
  0.3764421260033757  0.5180562537525049  0.3694275480227063   T   T   T
  0.3764421285431254  0.5180562137499720  0.4305725996820797   T   T   T
  0.3892155719080037  0.3401008346642698  0.3999999484553811   F   F   F
  0.3953342150406769  0.5039866553023060  0.4000000637708681   F   F   F

             NaN             NaN             NaN
             NaN             NaN             NaN
             NaN             NaN             NaN
             NaN             NaN             NaN
             NaN             NaN             NaN
             NaN             NaN             NaN
