 H  O                                   
   1.0000000000000000     
    25.0000000000000000    0.0000000000000000    0.0000000000000000
     0.0000000000000000   25.0000000000000000    0.0000000000000000
     0.0000000000000000    0.0000000000000000   25.0000000000000000
   H    O 
     4     2
Selective dynamics
Direct
  0.4213778234014535  0.3223760832316341  0.4000013263539872   T   T   T
  0.3988022889434460  0.3808124656286186  0.3999762173876023   T   T   T
  0.3737734450257828  0.4579558056831517  0.3690792947909731   T   T   T
  0.3737740327111374  0.4579710552941936  0.4309157731567220   T   T   T
  0.3884495754383863  0.3428909609398687  0.3999994969045062   F   F   F
  0.3945376242137613  0.4467126140842410  0.4000001885604405   F   F   F

             NaN             NaN             NaN
             NaN             NaN             NaN
             NaN             NaN             NaN
             NaN             NaN             NaN
             NaN             NaN             NaN
             NaN             NaN             NaN
