 H  O                                   
   1.0000000000000000     
    25.0000000000000000    0.0000000000000000    0.0000000000000000
     0.0000000000000000   25.0000000000000000    0.0000000000000000
     0.0000000000000000    0.0000000000000000   25.0000000000000000
   H    O 
     4     2
Selective dynamics
Direct
  0.4251258074413613  0.3260632331988376  0.4000000742755958   T   T   T
  0.3937101344774874  0.3786324687625253  0.3999999000111387   T   T   T
  0.3752734603295167  0.4784601230896186  0.3693881889154653   T   T   T
  0.3752734345887845  0.4784601376523625  0.4306118591198143   T   T   T
  0.3892155719080037  0.3401008346642698  0.3999999484553811   F   F   F
  0.3938418630570979  0.4640145039271744  0.4000000356451352   F   F   F

             NaN             NaN             NaN
             NaN             NaN             NaN
             NaN             NaN             NaN
             NaN             NaN             NaN
             NaN             NaN             NaN
             NaN             NaN             NaN
