 H  O                                   
   1.0000000000000000     
    25.0000000000000000    0.0000000000000000    0.0000000000000000
     0.0000000000000000   25.0000000000000000    0.0000000000000000
     0.0000000000000000    0.0000000000000000   25.0000000000000000
   H    O 
     4     2
Selective dynamics
Direct
  0.4255989581773463  0.3272614484851388  0.4000001264800801   T   T   T
  0.3925767168357623  0.3786511666213670  0.4000000182025474   T   T   T
  0.3762928679197586  0.5140591739967277  0.3694263630571371   T   T   T
  0.3762928704719997  0.5140591340084057  0.4305737793980242   T   T   T
  0.3892155719080037  0.3401008346642698  0.3999999484553811   F   F   F
  0.3951849798423197  0.4999894401647893  0.4000000609582912   F   F   F

             NaN             NaN             NaN
             NaN             NaN             NaN
             NaN             NaN             NaN
             NaN             NaN             NaN
             NaN             NaN             NaN
             NaN             NaN             NaN
