 H  O                                   
   1.0000000000000000     
    25.0000000000000000    0.0000000000000000    0.0000000000000000
     0.0000000000000000   25.0000000000000000    0.0000000000000000
     0.0000000000000000    0.0000000000000000   25.0000000000000000
   H    O 
     4     2
Selective dynamics
Direct
  0.4062372788077024  0.3054439120506711  0.4000985907044475   T   T   T
  0.4170759447489947  0.3668603732574902  0.3993884499477979   T   T   T
  0.3702414224575484  0.4307618123815775  0.3691316699494142   T   T   T
  0.3695844066725508  0.4283792299780937  0.4298684870977272   T   T   T
  0.3892155719080037  0.3401008346642698  0.3999999484553811   F   F   F
  0.3927972166685905  0.4360339979645858  0.4000000159571258   F   F   F

             NaN             NaN             NaN
             NaN             NaN             NaN
             NaN             NaN             NaN
             NaN             NaN             NaN
             NaN             NaN             NaN
             NaN             NaN             NaN
