 H  O                                   
   1.0000000000000000     
    25.0000000000000000    0.0000000000000000    0.0000000000000000
     0.0000000000000000   25.0000000000000000    0.0000000000000000
     0.0000000000000000    0.0000000000000000   25.0000000000000000
   H    O 
     4     2
Selective dynamics
Direct
  0.4256234509861575  0.3272653488929258  0.4000001264417904   T   T   T
  0.3924924967318639  0.3786731244168359  0.4000000162469275   T   T   T
  0.3767147936307291  0.5261002772556346  0.3694895074175261   T   T   T
  0.3767147964773204  0.5261002379773452  0.4305106512881690   T   T   T
  0.3892155719080037  0.3401008346642698  0.3999999484553811   F   F   F
  0.3956326854373984  0.5119810855773324  0.4000000693960146   F   F   F

             NaN             NaN             NaN
             NaN             NaN             NaN
             NaN             NaN             NaN
             NaN             NaN             NaN
             NaN             NaN             NaN
             NaN             NaN             NaN
