 H  O                                   
   1.0000000000000000     
    25.0000000000000000    0.0000000000000000    0.0000000000000000
     0.0000000000000000   25.0000000000000000    0.0000000000000000
     0.0000000000000000    0.0000000000000000   25.0000000000000000
   H    O 
     4     2
Selective dynamics
Direct
  0.4249313829515344  0.3256059902927078  0.4000001333733181   T   T   T
  0.3939978717315213  0.3786357696566185  0.3999999654036657   T   T   T
  0.3750600000478528  0.4704752775143461  0.3693375318060319   T   T   T
  0.3750600226601861  0.4704752657212836  0.4306625477552686   T   T   T
  0.3892155719080037  0.3401008346642698  0.3999999484553811   F   F   F
  0.3935433926603835  0.4560200736521480  0.4000000300199886   F   F   F

             NaN             NaN             NaN
             NaN             NaN             NaN
             NaN             NaN             NaN
             NaN             NaN             NaN
             NaN             NaN             NaN
             NaN             NaN             NaN
